3 
4  50 
5  07 22 37 52 
6  06 20 32 46 
7  02 17 32 47 
8  02 17 32 47 
9  02 17 32 47 
10  02 17 32 47 
11  02 17 32 47 
12  02 17 32 46 
13  01 16 31 46 
14  01 16 31 46 
15  01 16 31 46 
16  01 16 31 46 
17  01 16 31 46 
18  01 16 31 46 
19  01 18 33 48 
20  03 18 32 47 
21  02 17 32 47 
22  02 17 32 
23 
